c A SAT instance generated from a 3-CNF formula that had 44 clauses and 11 variables
p cnf 11 44
-3 9 -6 0
-11 7 -9 0
11 8 6 0
7 1 6 0
-11 3 -4 0
-10 2 3 0
-10 11 1 0
-6 -1 -10 0
2 5 -9 0
-1 -9 7 0
-7 -4 11 0
1 -4 -9 0
1 3 6 0
-3 11 10 0
8 -3 -7 0
-9 3 -6 0
-10 4 -3 0
-8 -6 10 0
5 -3 7 0
11 -9 1 0
-2 -3 11 0
-7 -8 6 0
5 4 3 0
9 -4 -2 0
-1 -2 4 0
-7 2 -4 0
9 1 5 0
1 7 -4 0
6 9 -2 0
1 -9 -7 0
3 6 -8 0
9 5 -6 0
9 3 6 0
11 -7 9 0
-8 -11 -7 0
1 -7 -10 0
5 1 -10 0
-1 -11 8 0
3 -8 -7 0
-1 5 10 0
8 11 2 0
-8 -3 1 0
-10 6 8 0
-3 -5 -9 0
